WARNING: for repeatability, setting FPU to use double precision
============================[ Problem Statistics ]=============================
|                                                                             |
|  Number of variables:           100                                         |
|  Number of clauses:             449                                         |
|  Parse time:                   0.00 s                                       |
|  Eliminated clauses:           0.00 Mb                                      |
|  Simplification time:          0.00 s                                       |
|                                                                             |
============================[ Search Statistics ]==============================
| Conflicts |          ORIGINAL         |          LEARNT          | Progress |
|           |    Vars  Clauses Literals |    Limit  Clauses Lit/Cl |          |
===============================================================================
|       100 |      98      446     1346 |      163      100      7 |  0.010 % |
|       250 |      98      446     1346 |      179      163      6 |  0.010 % |
|       475 |      98      446     1346 |      197      110      6 |  0.020 % |
===============================================================================
restarts              : 5
conflicts             : 600            (113186 /sec)
decisions             : 741            (0.00 % random) (139785 /sec)
propagations          : 13569          (2559706 /sec)
conflict literals     : 3737           (20.86 % deleted)
Memory used           : 13.00 MB
CPU time              : 0.005301 s

SATISFIABLE
